proyfinal/src/viki/013/experimentInOfficeAgust.take6.output/3972b220-266b-453c-8ced-3938890b3428.als.out
Reading from standard input... Use '--help' for help.
============================[ Problem Statistics ]=============================
|                                                                             |
|  Number of variables:         87638                                         |
|  Number of clauses:          161767                                         |
|  Parse time:                   0.04 s                                       |
|                                                                             |
============================[ Search Statistics ]==============================
| Conflicts |          ORIGINAL         |          LEARNT          | Progress |
|           |    Vars  Clauses Literals |    Limit  Clauses Lit/Cl |          |
===============================================================================
|       100 |   62333   105158   262768 |    38557       98     17 | 28.875 % |
|       250 |   62333   104960   262295 |    42413      248     35 | 28.874 % |
|       475 |   49820    70088   176611 |    46655      441     35 | 43.153 % |
|       812 |   49446    67881   170704 |    51320      720     35 | 43.579 % |
|      1318 |   49446    67881   170704 |    56452     1226     54 | 43.579 % |
|      2077 |   49332    67436   169640 |    62097     1950     46 | 43.709 % |
|      3216 |   49278    67177   169047 |    68307     2088     45 | 43.771 % |
|      4924 |   49214    66894   168343 |    75138     3746     46 | 43.844 % |
|      7486 |   48934    66075   166376 |    82652     6245     44 | 44.164 % |
|     11330 |   48509    63842   160985 |    90917     9034     45 | 44.648 % |
===============================================================================
restarts              : 60
conflicts             : 13523          (9119 /sec)
decisions             : 38902          (0.00 % random) (26233 /sec)
propagations          : 16576672       (11178128 /sec)
conflict literals     : 552324         (45.46 % deleted)
Memory used           : 29.17 MB
CPU time              : 1.48296 s

UNSATISFIABLE
